Version identifier: 22.1.1.0 | 2022-11-28 | 9160aff4d
CPXPARAM_TimeLimit                               3600
Tried aggregator 1 time.
MIP Presolve eliminated 71 rows and 22 columns.
Reduced MIP has 9329 rows, 2665 columns, and 27887 nonzeros.
Reduced MIP has 2665 binaries, 0 generals, 0 SOSs, and 0 indicators.
Presolve time = 0.02 sec. (17.54 ticks)
Found incumbent of value 6830823.000000 after 0.02 sec. (21.73 ticks)
Probing time = 0.01 sec. (4.00 ticks)
Tried aggregator 1 time.
Detecting symmetries...
Reduced MIP has 9329 rows, 2665 columns, and 27887 nonzeros.
Reduced MIP has 2665 binaries, 0 generals, 0 SOSs, and 0 indicators.
Presolve time = 0.02 sec. (20.50 ticks)
Probing time = 0.01 sec. (4.00 ticks)
Clique table members: 2479.
MIP emphasis: balance optimality and feasibility.
MIP search method: dynamic search.
Parallel mode: deterministic, using up to 8 threads.
Root relaxation solution time = 0.02 sec. (14.82 ticks)

        Nodes                                         Cuts/
   Node  Left     Objective  IInf  Best Integer    Best Bound    ItCnt     Gap

*     0+    0                      6830823.0000        0.0000           100.00%
*     0+    0                      4407716.0000        0.0000           100.00%
*     0+    0                      4214214.0000        0.0000           100.00%
*     0+    0                      4019716.0000        0.0000           100.00%
      0     0    93774.0000   100  4019716.0000    93774.0000      161   97.67%
*     0+    0                      2366725.0000    93774.0000            96.04%
      0     0   106217.5000   100  2366725.0000     Cuts: 327      287   95.51%
      0     0   118582.5000    96  2366725.0000     Cuts: 327      420   94.99%
      0     0   127824.7778   167  2366725.0000  ZeroHalf: 89      671   94.60%
      0     0   132578.5000   164  2366725.0000     Cuts: 125      839   94.40%
*     0+    0                      2338759.0000   132578.5000            94.33%
      0     0   136917.2275   201  2338759.0000 ZeroHalf: 102     1015   94.15%
*     0+    0                      1788350.0000   136917.2275            92.34%
*     0+    0                       311754.0000   136917.2275            56.08%
*     0+    0                       266674.0000   136917.2275            48.66%
*     0+    0                       266242.0000   136917.2275            48.57%
*     0+    0                       246879.0000   136917.2275            44.54%
*     0+    0                       168091.0000   136917.2275            18.55%
*     0+    0                       167154.0000   136917.2275            18.09%
      0     0  -1.00000e+75     0   167154.0000   136917.2275     1015   18.09%
Detecting symmetries...
*     0+    0                       166825.0000   136917.2275            17.93%
Detecting symmetries...

Repeating presolve.
Tried aggregator 2 times.
MIP Presolve eliminated 6814 rows and 1552 columns.
MIP Presolve modified 1368 coefficients.
Aggregator did 7 substitutions.
Reduced MIP has 2508 rows, 1106 columns, and 8418 nonzeros.
Reduced MIP has 1106 binaries, 0 generals, 0 SOSs, and 0 indicators.
Presolve time = 0.01 sec. (12.47 ticks)
Probing time = 0.00 sec. (2.44 ticks)
Tried aggregator 1 time.
Detecting symmetries...
Reduced MIP has 2508 rows, 1106 columns, and 8418 nonzeros.
Reduced MIP has 1106 binaries, 0 generals, 0 SOSs, and 0 indicators.
Presolve time = 0.01 sec. (7.89 ticks)
Represolve time = 0.04 sec. (31.76 ticks)
Probing time = 0.00 sec. (2.44 ticks)
Clique table members: 1511.
MIP emphasis: balance optimality and feasibility.
MIP search method: dynamic search.
Parallel mode: deterministic, using up to 8 threads.
Root relaxation solution time = 0.06 sec. (43.31 ticks)

        Nodes                                         Cuts/
   Node  Left     Objective  IInf  Best Integer    Best Bound    ItCnt     Gap

*     0+    0                       166825.0000   136917.2275            17.93%
      0     0   141946.8889   118   166825.0000   141946.8889     1792   14.91%
      0     0   142740.3655   170   166825.0000     Cuts: 105     1940   14.44%
      0     0   143061.0789   173   166825.0000      Cuts: 48     2019   14.24%
      0     0   143264.4101   172   166825.0000      Cuts: 24     2091   14.12%
      0     0   143440.6610   167   166825.0000      Cuts: 29     2154   14.02%
      0     0   143489.7634   174   166825.0000       Cuts: 8     2179   13.99%
Detecting symmetries...
      0     0   143568.9231   155   166825.0000      Cuts: 12     2209   13.94%
      0     0   143656.6464   156   166825.0000      Cuts: 32     2273   13.89%
      0     0   143743.3442   156   166825.0000      Cuts: 15     2343   13.84%
      0     0   143760.3958   161   166825.0000       Cuts: 6     2372   13.83%
*     0+    0                       166486.0000   143760.3958            13.65%
      0     0   143775.4538   162   166486.0000       Cuts: 8     2395   13.64%
      0     0   143779.4141   164   166486.0000       Cuts: 2     2412   13.64%
      0     0   143781.9868   163   166486.0000       Cuts: 2     2421   13.64%
Detecting symmetries...
      0     2   143781.9868   163   166486.0000   149415.3333     2421   10.25%
Elapsed time = 4.18 sec. (2347.03 ticks, tree = 0.02 MB, solutions = 15)
    352   146   160199.7273   110   166486.0000   149415.3333    20928   10.25%
    782   324   160979.2059   130   166486.0000   149415.3333    42522   10.25%
   1258   458        cutoff         166486.0000   156943.1000    61218    5.73%
   1857   568   165930.8947   111   166486.0000   159738.1429    82832    4.05%
   2597   289   166204.6061    89   166486.0000   163724.0000   111097    1.66%

Implied bound cuts applied:  180
Zero-half cuts applied:  105
Lift and project cuts applied:  11
Gomory fractional cuts applied:  1

Root node processing (before b&c):
  Real time             =    4.17 sec. (2346.15 ticks)
Parallel b&c, 8 threads:
  Real time             =    2.12 sec. (1242.83 ticks)
  Sync time (average)   =    0.23 sec.
  Wait time (average)   =    0.00 sec.
                          ------------
Total (root+branch&cut) =    6.29 sec. (3588.99 ticks)
Status: Optimal
Obj: 166486

Instalacoes abertas:
Instalação 4 aberta
Instalação 8 aberta
Instalação 9 aberta
Instalação 20 aberta
Instalação 22 aberta

Atribuições (cliente -> instalação):
Cliente 0 -> Instalação 4
Cliente 1 -> Instalação 4
Cliente 2 -> Instalação 20
Cliente 3 -> Instalação 4
Cliente 4 -> Instalação 8
Cliente 5 -> Instalação 8
Cliente 6 -> Instalação 20
Cliente 7 -> Instalação 9
Cliente 8 -> Instalação 8
Cliente 9 -> Instalação 8
Cliente 10 -> Instalação 20
Cliente 11 -> Instalação 4
Cliente 12 -> Instalação 9
Cliente 13 -> Instalação 4
Cliente 14 -> Instalação 9
Cliente 15 -> Instalação 9
Cliente 16 -> Instalação 9
Cliente 17 -> Instalação 9
Cliente 18 -> Instalação 20
Cliente 19 -> Instalação 9
Cliente 20 -> Instalação 20
Cliente 21 -> Instalação 9
Cliente 22 -> Instalação 22
Cliente 23 -> Instalação 20
Cliente 24 -> Instalação 20
Cliente 25 -> Instalação 4
Cliente 26 -> Instalação 8
Cliente 27 -> Instalação 20
Cliente 28 -> Instalação 9
Cliente 29 -> Instalação 4
Cliente 30 -> Instalação 9
Cliente 31 -> Instalação 9
Cliente 32 -> Instalação 4
Cliente 33 -> Instalação 20
Cliente 34 -> Instalação 9
Cliente 35 -> Instalação 4
Cliente 36 -> Instalação 9
Cliente 37 -> Instalação 4
Cliente 38 -> Instalação 8
Cliente 39 -> Instalação 8
Cliente 40 -> Instalação 20
Cliente 41 -> Instalação 20
Cliente 42 -> Instalação 4
Cliente 43 -> Instalação 4
Cliente 44 -> Instalação 8
Cliente 45 -> Instalação 4
Cliente 46 -> Instalação 4
Cliente 47 -> Instalação 9
Cliente 48 -> Instalação 20
Cliente 49 -> Instalação 20
